--- Job inclass.gms Start 04/06/25 20:56:39 49.3.0 7de46a92 WEX-WEI x86 64bit/MS Windows
--- Applying:
    C:\GAMS\49\gmsprmNT.txt
--- GAMS Parameters defined
    Input C:\users\juand\Documents\vscode\semestre7\SistemasYModelos\gamspy\gams\sensivity\inclass\inclass.gms
    PageSize 0
    ScrDir C:\users\juand\Documents\vscode\semestre7\SistemasYModelos\gamspy\gams\sensivity\inclass\225a\
    SysDir C:\GAMS\49\
    LogOption 3
    ErrMsg 1
    ErrorLog 99
    IDE 1
    LstTitleLeftAligned 1
Licensee: GAMS Demo, for EULA and demo limitations see   G250131/0001CB-GEN
          https://www.gams.com/latest/docs/UG%5FLicense.html         DC0000
          C:\GAMS\49\gamslice.txt
          Demo license for demonstration and instructional purposes only
System information: 8 physical cores and 16 Gb memory detected
GAMS 49.3.0   Copyright (C) 1987-2025 GAMS Development. All rights reserved
--- Starting compilation
--- inclass.gms(16) 2 Mb
--- Starting execution: elapsed 0:00:00.003
--- inclass.gms(15) 3 Mb
--- Generating LP model EJERCICIO
--- inclass.gms(16) 3 Mb
---   3 rows  4 columns  9 non-zeroes
--- Range statistics (absolute non-zero finite values)
--- RHS       [min, max] : [ 1.000E+01, 1.000E+01] - Zero values observed as well
--- Bound     [min, max] : [        NA,        NA] - Zero values observed as well
--- Matrix    [min, max] : [ 1.000E+00, 4.000E+00]
--- Executing CPLEX (Solvelink=2): elapsed 0:00:00.008

IBM ILOG CPLEX   49.3.0 7de46a92 Mar 18, 2025          WEI x86 64bit/MS Window

*** This solver runs with a demo license. No commercial use.

Reading parameter(s) from "C:\users\juand\Documents\vscode\semestre7\SistemasYModelos\gamspy\gams\sensivity\inclass\cplex.opt"
>>  objrng all 
>>  rhsrng all
Finished reading from "C:\users\juand\Documents\vscode\semestre7\SistemasYModelos\gamspy\gams\sensivity\inclass\cplex.opt"

--- GMO setup time: 0.00s
--- GMO memory 0.50 Mb (peak 0.50 Mb)
--- Dictionary memory 0.00 Mb
--- Cplex 22.1.2.0 link memory 0.00 Mb (peak 0.00 Mb)
--- Starting Cplex

Version identifier: 22.1.2.0 | 2024-11-25 | 0edbb82fd
CPXPARAM_Advance                                 0
CPXPARAM_Simplex_Display                         2
CPXPARAM_MIP_Display                             4
CPXPARAM_MIP_Pool_Capacity                       0
CPXPARAM_MIP_Tolerances_AbsMIPGap                0
Tried aggregator 1 time.
LP Presolve eliminated 0 rows and 1 columns.
Reduced LP has 2 rows, 3 columns, and 5 nonzeros.
Presolve time = 0.00 sec. (0.00 ticks)

Iteration      Dual Objective            In Variable           Out Variable
     1  I            0.000000                     X2               B2 artif

--- LP status (1): optimal.
--- Cplex Time: 0.00sec (det. 0.00 ticks)

--- Start ranging / sensitivity analysis...
--- Right-hand-side ranging...

EQUATION NAME                            LOWER           CURRENT             UPPER
-------------                            -----           -------             -----
OBJ                                       -INF                NA              +INF   
B1                                          10                10              +INF   
B2                                           0                10                10   

--- Objective ranging...

VARIABLE NAME                            LOWER           CURRENT             UPPER
-------------                            -----           -------             -----
F                                         -INF                NA              +INF   
X1                                        -INF                 3                 4   
X2                                           3                 4              +INF   
X3                                        -INF               1.5                 2   


Optimal solution found
Objective:           20.000000

--- Reading solution for model EJERCICIO
*** Status: Normal completion
--- Job inclass.gms Stop 04/06/25 20:56:39 elapsed 0:00:00.108
